files/upTests/___types/partition/0001.eprime.solution
language ESSENCE' 1.0
$ minion Nodes: 83
$ minion TotalTime: 0.005695
$ Savile Row TotalTime: 0.584
letting p_MSetOfSets_Explicit_Occurrence be [[0, 0, 0, 0, 0, 0, 0, 0, 1;int(1..9)], 
[0, 0, 0, 0, 1, 1, 1, 1, 0;int(1..9)], 
[1, 1, 1, 1, 0, 0, 0, 0, 0;int(1..9)];int(1..3)]
